8464.0
[1, 1, 0, 0, 0, 0, 1, 0, 0, 0, 1, 0, 0, 1, 1, 1, 0, 1, 0, 1]
[0, 1, 10, 10, 1, 15, 17, 13, 14, 17, 15, 19, 1, 6, 13, 14, 15, 10, 17, 6, 14, 15, 15, 19, 6, 1, 0, 17, 1, 17, 13, 15, 13, 0, 1, 10, 17, 19, 19, 13, 6, 0, 15, 0, 6, 13, 14, 10, 19, 6]